30 62
29
6 18 24 15
2 12 17 30
10 7 9 42
4 23 13 17
4 1 5 61
7 7 3 54
11 4 19 0
6 5 3 40
2 7 0 54
6 11 24 4
10 19 0 0
11 5 2 19
4 2 9 34
7 5 23 57
4 2 13 40
7 12 10 5
7 13 10 49
3 6 10 36
6 10 17 51
9 16 0 24
1 4 2 58
4 10 9 24
6 24 24 33
9 9 0 45
2 1 21 61
8 5 11 0
3 5 0 40
7 25 17 5
5 21 19 30

301
True